c User generated cnf file
p cnf 13 34
6 -2 5 0 
-12 2 12 0 
7 -1 11 0 
2 -7 2 0 
6 -5 9 0 
-10 6 13 0 
5 -13 9 0 
-8 12 8 0 
5 12 -12 0 
8 -7 12 0 
1 8 -3 0 
10 9 -3 0 
-12 11 12 0 
-7 11 6 0 
-9 10 3 0 
2 -5 12 0 
13 -9 4 0 
-12 1 8 0 
-9 3 5 0 
-5 3 10 0 
9 -3 13 0 
-9 2 8 0 
2 9 -4 0 
6 -1 6 0 
12 -12 4 0 
10 9 -11 0 
9 1 -3 0 
13 -4 3 0 
-4 12 8 0 
4 -5 3 0 
5 -5 5 0 
11 -10 3 0 
2 -7 2 0 
-6 8 3 0 
